
Gurobi 10.0.1 (win64) logging started Mon Jun 19 13:44:54 2023

Set parameter LogFile to value "results/log/SNT_01_makespan.log"
Gurobi Optimizer version 10.0.1 build v10.0.1rc0 (win64)

CPU model: 12th Gen Intel(R) Core(TM) i7-12700, instruction set [SSE2|AVX|AVX2]
Thread count: 12 physical cores, 20 logical processors, using up to 20 threads

Optimize a model with 54 rows, 33 columns and 197 nonzeros
Model fingerprint: 0xbcf2848d
Variable types: 0 continuous, 33 integer (24 binary)
Coefficient statistics:
  Matrix range     [1e+00, 7e+04]
  Objective range  [1e+00, 1e+00]
  Bounds range     [1e+00, 1e+00]
  RHS range        [1e+00, 2e+05]
Presolve removed 13 rows and 16 columns
Presolve time: 0.00s
Presolved: 41 rows, 17 columns, 159 nonzeros
Variable types: 0 continuous, 17 integer (9 binary)
Found heuristic solution: objective 322.0000000

Root relaxation: objective 2.620000e+02, 6 iterations, 0.00 seconds (0.00 work units)

    Nodes    |    Current Node    |     Objective Bounds      |     Work
 Expl Unexpl |  Obj  Depth IntInf | Incumbent    BestBd   Gap | It/Node Time

     0     0  262.00000    0    2  322.00000  262.00000  18.6%     -    0s
     0     0  312.00000    0    5  322.00000  312.00000  3.11%     -    0s
     0     0  322.00000    0    8  322.00000  322.00000  0.00%     -    0s

Cutting planes:
  Learned: 3

Explored 1 nodes (13 simplex iterations) in 0.01 seconds (0.00 work units)
Thread count was 20 (of 20 available processors)

Solution count 1: 322 

Optimal solution found (tolerance 1.00e-04)
Best objective 3.220000000000e+02, best bound 3.220000000000e+02, gap 0.0000%
Warning: variable name "y[job:0, stage:0, machine:1]" has a space
Warning: constraint name "precedence between 1,0 to 0,0 if x_[j,l,h,z,i]=1" has a space
Warning: to let Gurobi read it back, use rlp format
Warning: variable name "y[job:0, stage:0, machine:1]" has a space
Warning: constraint name "precedence between 1,0 to 0,0 if x_[j,l,h,z,i]=1" has a space
Warning: default variable names used to write mps file
Warning: default constraint names used to write mps file
Warning: variable name "y[job:0, stage:0, machine:1]" has a space
Warning: default variable names used to write solution file
